<?xml version = "1.0" encoding="UTF-8" standalone="yes"?>
<CPLEXSolution version="1.2">
 <header
   problemName="IloCplex"
   solutionName="p0"
   solutionIndex="-1"
   objectiveValue="170158"
   solutionTypeValue="3"
   solutionTypeString="primal"
   solutionStatusValue="127"
   solutionStatusString="integer feasible solution"
   solutionMethodString="mip"
   primalFeasible="0"
   dualFeasible="0"
   writeLevel="3"/>
 <quality
   epInt="1.0000000000000001e-05"
   epRHS="9.9999999999999995e-07"
   maxIntInfeas="0"
   maxPrimalInfeas="0"
   maxX="743"
   maxSlack="57"/>
 <variables>
  <variable name="x1" index="0" value="743"/>
  <variable name="w0_2" index="3" value="743"/>
  <variable name="w2_3" index="12" value="743"/>
  <variable name="w3_0" index="13" value="743"/>
  <variable name="w4_0" index="17" value="743"/>
  <variable name="w4_3" index="20" value="743"/>
  <variable name="w5_1" index="22" value="743"/>
  <variable name="w7_2" index="31" value="743"/>
  <variable name="w8_0" index="33" value="743"/>
  <variable name="w8_2" index="35" value="743"/>
  <variable name="w11_0" index="45" value="743"/>
  <variable name="w11_1" index="46" value="743"/>
  <variable name="w11_2" index="47" value="743"/>
  <variable name="w12_0" index="49" value="743"/>
  <variable name="w12_2" index="51" value="743"/>
  <variable name="w13_0" index="53" value="743"/>
  <variable name="w13_2" index="55" value="743"/>
  <variable name="w14_0" index="57" value="743"/>
  <variable name="w14_1" index="58" value="743"/>
  <variable name="w16_0" index="65" value="743"/>
  <variable name="w16_2" index="67" value="743"/>
  <variable name="w17_0" index="69" value="743"/>
  <variable name="w17_1" index="70" value="743"/>
  <variable name="w19_0" index="77" value="743"/>
  <variable name="w19_2" index="79" value="743"/>
  <variable name="w20_1" index="82" value="743"/>
  <variable name="w20_2" index="83" value="743"/>
  <variable name="w21_1" index="86" value="743"/>
  <variable name="w22_0" index="89" value="743"/>
  <variable name="w22_2" index="91" value="743"/>
  <variable name="w23_0" index="93" value="743"/>
  <variable name="w23_3" index="96" value="743"/>
  <variable name="w24_0" index="97" value="743"/>
  <variable name="w24_2" index="99" value="743"/>
  <variable name="w25_3" index="104" value="743"/>
  <variable name="w26_0" index="105" value="743"/>
  <variable name="w26_1" index="106" value="743"/>
  <variable name="w27_3" index="112" value="743"/>
  <variable name="w28_2" index="115" value="743"/>
  <variable name="w30_1" index="122" value="743"/>
  <variable name="w31_1" index="126" value="743"/>
  <variable name="w32_0" index="129" value="743"/>
  <variable name="w33_1" index="134" value="743"/>
  <variable name="w33_2" index="135" value="743"/>
  <variable name="w35_0" index="141" value="743"/>
  <variable name="w35_1" index="142" value="743"/>
  <variable name="w35_2" index="143" value="743"/>
  <variable name="w36_1" index="146" value="743"/>
  <variable name="w36_2" index="147" value="743"/>
  <variable name="w37_1" index="150" value="743"/>
  <variable name="w38_0" index="153" value="743"/>
  <variable name="w38_1" index="154" value="743"/>
  <variable name="w39_0" index="157" value="743"/>
  <variable name="w39_2" index="159" value="743"/>
  <variable name="w40_0" index="161" value="743"/>
  <variable name="w40_2" index="163" value="743"/>
  <variable name="w41_0" index="165" value="743"/>
  <variable name="w42_0" index="169" value="743"/>
  <variable name="w42_1" index="170" value="743"/>
  <variable name="w43_3" index="176" value="743"/>
  <variable name="w44_0" index="177" value="743"/>
  <variable name="w44_1" index="178" value="743"/>
  <variable name="w45_0" index="181" value="743"/>
  <variable name="w45_1" index="182" value="743"/>
  <variable name="w46_1" index="186" value="743"/>
  <variable name="w47_0" index="189" value="743"/>
  <variable name="x0_21" index="222" value="1"/>
  <variable name="x1_44" index="295" value="1"/>
  <variable name="x2_4" index="305" value="1"/>
  <variable name="x3_37" index="388" value="1"/>
  <variable name="x4_0" index="401" value="1"/>
  <variable name="x5_31" index="482" value="1"/>
  <variable name="x6_49" index="550" value="1"/>
  <variable name="x7_23" index="574" value="1"/>
  <variable name="x8_8" index="609" value="1"/>
  <variable name="x9_47" index="698" value="1"/>
  <variable name="x10_39" index="740" value="1"/>
  <variable name="x11_7" index="758" value="1"/>
  <variable name="x12_13" index="814" value="1"/>
  <variable name="x13_16" index="867" value="1"/>
  <variable name="x14_30" index="931" value="1"/>
  <variable name="x15_42" index="993" value="1"/>
  <variable name="x16_9" index="1010" value="1"/>
  <variable name="x17_25" index="1076" value="1"/>
  <variable name="x18_46" index="1147" value="1"/>
  <variable name="x19_18" index="1169" value="1"/>
  <variable name="x20_12" index="1213" value="1"/>
  <variable name="x21_34" index="1285" value="1"/>
  <variable name="x22_19" index="1320" value="1"/>
  <variable name="x23_2" index="1353" value="1"/>
  <variable name="x24_14" index="1415" value="1"/>
  <variable name="x25_3" index="1454" value="1"/>
  <variable name="x26_24" index="1525" value="1"/>
  <variable name="x27_1" index="1552" value="1"/>
  <variable name="x28_20" index="1621" value="1"/>
  <variable name="x29_41" index="1692" value="1"/>
  <variable name="x30_36" index="1737" value="1"/>
  <variable name="x31_35" index="1786" value="1"/>
  <variable name="x32_40" index="1841" value="1"/>
  <variable name="x33_11" index="1862" value="1"/>
  <variable name="x34_43" index="1944" value="1"/>
  <variable name="x35_6" index="1957" value="1"/>
  <variable name="x36_10" index="2011" value="1"/>
  <variable name="x37_33" index="2084" value="1"/>
  <variable name="x38_29" index="2130" value="1"/>
  <variable name="x39_15" index="2166" value="1"/>
  <variable name="x40_17" index="2218" value="1"/>
  <variable name="x41_38" index="2289" value="1"/>
  <variable name="x42_27" index="2328" value="1"/>
  <variable name="x43_5" index="2356" value="1"/>
  <variable name="x44_22" index="2423" value="1"/>
  <variable name="x45_26" index="2477" value="1"/>
  <variable name="x46_28" index="2529" value="1"/>
  <variable name="x47_32" index="2583" value="1"/>
  <variable name="x48_48" index="2649" value="1"/>
  <variable name="x49_45" index="2696" value="1"/>
  <variable name="v0_2" index="2703" value="1"/>
  <variable name="v2_3" index="2712" value="1"/>
  <variable name="v3_0" index="2713" value="1"/>
  <variable name="v4_0" index="2717" value="1"/>
  <variable name="v4_3" index="2720" value="1"/>
  <variable name="v5_1" index="2722" value="1"/>
  <variable name="v7_2" index="2731" value="1"/>
  <variable name="v8_0" index="2733" value="1"/>
  <variable name="v8_2" index="2735" value="1"/>
  <variable name="v11_0" index="2745" value="1"/>
  <variable name="v11_1" index="2746" value="1"/>
  <variable name="v11_2" index="2747" value="1"/>
  <variable name="v12_0" index="2749" value="1"/>
  <variable name="v12_2" index="2751" value="1"/>
  <variable name="v13_0" index="2753" value="1"/>
  <variable name="v13_2" index="2755" value="1"/>
  <variable name="v14_0" index="2757" value="1"/>
  <variable name="v14_1" index="2758" value="1"/>
  <variable name="v16_0" index="2765" value="1"/>
  <variable name="v16_2" index="2767" value="1"/>
  <variable name="v17_0" index="2769" value="1"/>
  <variable name="v17_1" index="2770" value="1"/>
  <variable name="v19_0" index="2777" value="1"/>
  <variable name="v19_2" index="2779" value="1"/>
  <variable name="v20_1" index="2782" value="1"/>
  <variable name="v20_2" index="2783" value="1"/>
  <variable name="v21_1" index="2786" value="1"/>
  <variable name="v22_0" index="2789" value="1"/>
  <variable name="v22_2" index="2791" value="1"/>
  <variable name="v23_0" index="2793" value="1"/>
  <variable name="v23_3" index="2796" value="1"/>
  <variable name="v24_0" index="2797" value="1"/>
  <variable name="v24_2" index="2799" value="1"/>
  <variable name="v25_3" index="2804" value="1"/>
  <variable name="v26_0" index="2805" value="1"/>
  <variable name="v26_1" index="2806" value="1"/>
  <variable name="v27_3" index="2812" value="1"/>
  <variable name="v28_2" index="2815" value="1"/>
  <variable name="v30_1" index="2822" value="1"/>
  <variable name="v31_1" index="2826" value="1"/>
  <variable name="v32_0" index="2829" value="1"/>
  <variable name="v33_1" index="2834" value="1"/>
  <variable name="v33_2" index="2835" value="1"/>
  <variable name="v35_0" index="2841" value="1"/>
  <variable name="v35_1" index="2842" value="1"/>
  <variable name="v35_2" index="2843" value="1"/>
  <variable name="v36_1" index="2846" value="1"/>
  <variable name="v36_2" index="2847" value="1"/>
  <variable name="v37_1" index="2850" value="1"/>
  <variable name="v38_0" index="2853" value="1"/>
  <variable name="v38_1" index="2854" value="1"/>
  <variable name="v39_0" index="2857" value="1"/>
  <variable name="v39_2" index="2859" value="1"/>
  <variable name="v40_0" index="2861" value="1"/>
  <variable name="v40_2" index="2863" value="1"/>
  <variable name="v41_0" index="2865" value="1"/>
  <variable name="v42_0" index="2869" value="1"/>
  <variable name="v42_1" index="2870" value="1"/>
  <variable name="v43_3" index="2876" value="1"/>
  <variable name="v44_0" index="2877" value="1"/>
  <variable name="v44_1" index="2878" value="1"/>
  <variable name="v45_0" index="2881" value="1"/>
  <variable name="v45_1" index="2882" value="1"/>
  <variable name="v46_1" index="2886" value="1"/>
  <variable name="v47_0" index="2889" value="1"/>
 </variables>
</CPLEXSolution>
